c turning on binary mode checking
c parsing input formula with 202048 variables and 780980 clauses
c finished parsing, read 20983605 bytes from proof file
c detected empty clause; start verification via backward checking
c 36310 of 780980 clauses in core                            
c 53490 of 518078 lemmas in core using 415945 resolution steps
c 0 RAT lemmas in core; 4471 redundant literals in core lemmas
s VERIFIED
c verification time: 3.026 seconds
